(set-info :source |printed by MathSAT|)
(declare-fun call_peterson.ite57 () Int)
(declare-fun _OK_ () Bool)
(declare-fun call_peterson.ite3 () Int)
(declare-fun call_peterson.x9 () Int)
(declare-fun call_peterson.x13 () Int)
(declare-fun call_peterson.flby8 () Int)
(declare-fun call_peterson.ite49 () Int)
(declare-fun call_peterson.x0 () Int)
(declare-fun call_peterson.ite20 () Int)
(declare-fun param_e07 () Bool)
(declare-fun param_e09 () Bool)
(declare-fun call_peterson.ite34 () Int)
(declare-fun x5 () Int)
(declare-fun call_peterson.x12 () Int)
(declare-fun call_peterson.ite28 () Int)
(declare-fun call_peterson.ite16 () Int)
(declare-fun call_excludes12.excludes () Bool)
(declare-fun call_peterson.ite36 () Int)
(declare-fun call_peterson.flby7 () Int)
(declare-fun call_peterson.ite56 () Int)
(declare-fun call_peterson.ite65 () Int)
(declare-fun call_peterson.ite26 () Int)
(declare-fun x8 () Int)
(declare-fun call_peterson.ite53 () Int)
(declare-fun call_peterson.ite67 () Int)
(declare-fun call_peterson.ite48 () Int)
(declare-fun call_peterson.flby () Int)
(declare-fun call_peterson.ite23 () Int)
(declare-fun call_peterson.ite46 () Int)
(declare-fun call_peterson.ite47 () Int)
(declare-fun call_peterson.ite27 () Int)
(declare-fun flby () Bool)
(declare-fun call_peterson.ite59 () Int)
(declare-fun x11 () Int)
(declare-fun call_peterson.ite32 () Int)
(declare-fun env () Bool)
(declare-fun x7 () Int)
(declare-fun call_peterson.ite51 () Int)
(declare-fun call_peterson.ite21 () Int)
(declare-fun x2 () Int)
(declare-fun call_peterson.ite41 () Int)
(declare-fun call_peterson.x5 () Int)
(declare-fun call_peterson.ite40 () Int)
(declare-fun call_peterson.flby9 () Int)
(declare-fun call_peterson.flby2 () Int)
(declare-fun call_peterson.ite52 () Int)
(declare-fun call_peterson.ite17 () Int)
(declare-fun call_peterson.ite55 () Int)
(declare-fun call_peterson.ite25 () Int)
(declare-fun call_peterson.x8 () Int)
(declare-fun call_peterson.ite62 () Int)
(declare-fun param_e05 () Bool)
(declare-fun call_peterson.ite43 () Int)
(declare-fun call_peterson.ite10 () Int)
(declare-fun call_peterson.ite19 () Int)
(declare-fun call_peterson.ite38 () Int)
(declare-fun param_e06 () Bool)
(declare-fun call_peterson.ite5 () Int)
(declare-fun x4 () Int)
(declare-fun call_peterson.ite15 () Int)
(declare-fun call_peterson.x11 () Int)
(declare-fun call_peterson.ite60 () Int)
(declare-fun call_peterson.ite7 () Int)
(declare-fun call_peterson.ite58 () Int)
(declare-fun call_peterson.ite68 () Int)
(declare-fun call_peterson.x2 () Int)
(declare-fun call_peterson.ite4 () Int)
(declare-fun call_peterson.ite72 () Int)
(declare-fun param_e03 () Bool)
(declare-fun param_e02 () Bool)
(declare-fun call_Sofar.Sofar () Bool)
(declare-fun call_peterson.flby6 () Int)
(declare-fun call_peterson.ite11 () Int)
(declare-fun call_peterson.ite35 () Int)
(declare-fun param_e01 () Bool)
(declare-fun call_peterson.ite63 () Int)
(declare-fun call_peterson.ite61 () Int)
(declare-fun x10 () Int)
(declare-fun x1 () Int)
(declare-fun call_peterson.ite12 () Int)
(declare-fun call_peterson.x4 () Int)
(declare-fun call_peterson.ite66 () Int)
(declare-fun param_e10 () Bool)
(declare-fun call_peterson.flby4 () Int)
(declare-fun call_peterson.ite24 () Int)
(declare-fun call_peterson.ite6 () Int)
(declare-fun call_peterson.x7 () Int)
(declare-fun call_peterson.ite31 () Int)
(declare-fun call_peterson.ite50 () Int)
(declare-fun call_peterson.flby10 () Int)
(declare-fun call_peterson.flby3 () Int)
(declare-fun call_peterson.ite8 () Int)
(declare-fun param_e08 () Bool)
(declare-fun call_peterson.ite30 () Int)
(declare-fun call_peterson.ite2 () Int)
(declare-fun x3 () Int)
(declare-fun call_peterson.flby12 () Int)
(declare-fun call_peterson.ite13 () Int)
(declare-fun param_e12 () Bool)
(declare-fun call_peterson.flby5 () Int)
(declare-fun call_peterson.x10 () Int)
(declare-fun call_peterson.ite () Int)
(declare-fun call_peterson.flby11 () Int)
(declare-fun call_peterson.x1 () Int)
(declare-fun param_e04 () Bool)
(declare-fun param_e11 () Bool)
(declare-fun call_peterson.ite18 () Int)
(declare-fun call_peterson.ite54 () Int)
(declare-fun call_peterson.flby14 () Int)
(declare-fun x6 () Int)
(declare-fun call_peterson.ite42 () Int)
(declare-fun x9 () Int)
(declare-fun x13 () Int)
(declare-fun call_peterson.ite9 () Int)
(declare-fun call_Sofar.flby () Bool)
(declare-fun x0 () Int)
(declare-fun call_peterson.ite33 () Int)
(declare-fun call_peterson.x3 () Int)
(declare-fun call_peterson.ite22 () Int)
(declare-fun call_peterson.ite44 () Int)
(declare-fun x12 () Int)
(declare-fun call_peterson.ite69 () Int)
(declare-fun call_peterson.ite70 () Int)
(declare-fun call_peterson.ite45 () Int)
(declare-fun call_peterson.flby13 () Int)
(declare-fun call_peterson.x6 () Int)
(declare-fun call_peterson.ite64 () Int)
(declare-fun call_peterson.ite37 () Int)
(declare-fun call_peterson.ite14 () Int)
(declare-fun call_peterson.ite39 () Int)
(declare-fun call_peterson.ite71 () Int)
(declare-fun call_peterson.ite29 () Int)
(define-fun .def_2022 () Bool (= call_Sofar.flby call_Sofar.Sofar))
(define-fun .def_1690 () Bool (not param_e02))
(define-fun .def_1648 () Bool (not param_e01))
(define-fun .def_1920 () Bool (and .def_1648 .def_1690))
(define-fun .def_1543 () Bool (not param_e03))
(define-fun .def_1921 () Bool (and .def_1543 .def_1920))
(define-fun .def_1731 () Bool (not param_e04))
(define-fun .def_1922 () Bool (and .def_1731 .def_1921))
(define-fun .def_1550 () Bool (not param_e05))
(define-fun .def_1923 () Bool (and .def_1550 .def_1922))
(define-fun .def_1557 () Bool (not param_e06))
(define-fun .def_1924 () Bool (and .def_1557 .def_1923))
(define-fun .def_1775 () Bool (not param_e07))
(define-fun .def_1925 () Bool (and .def_1775 .def_1924))
(define-fun .def_1579 () Bool (not param_e08))
(define-fun .def_1926 () Bool (and .def_1579 .def_1925))
(define-fun .def_1591 () Bool (not param_e09))
(define-fun .def_1927 () Bool (and .def_1591 .def_1926))
(define-fun .def_1880 () Bool (not param_e10))
(define-fun .def_1928 () Bool (and .def_1880 .def_1927))
(define-fun .def_1536 () Bool (not param_e11))
(define-fun .def_1929 () Bool (and .def_1536 .def_1928))
(define-fun .def_1515 () Bool (not param_e12))
(define-fun .def_2007 () Bool (and .def_1515 .def_1929))
(define-fun .def_1996 () Bool (and param_e01 .def_1690))
(define-fun .def_1997 () Bool (and .def_1543 .def_1996))
(define-fun .def_1998 () Bool (and .def_1731 .def_1997))
(define-fun .def_1999 () Bool (and .def_1550 .def_1998))
(define-fun .def_2000 () Bool (and .def_1557 .def_1999))
(define-fun .def_2001 () Bool (and .def_1775 .def_2000))
(define-fun .def_2002 () Bool (and .def_1579 .def_2001))
(define-fun .def_2003 () Bool (and .def_1591 .def_2002))
(define-fun .def_2004 () Bool (and .def_1880 .def_2003))
(define-fun .def_2005 () Bool (and .def_1536 .def_2004))
(define-fun .def_2006 () Bool (and .def_1515 .def_2005))
(define-fun .def_2008 () Bool (or .def_2006 .def_2007))
(define-fun .def_1985 () Bool (and .def_1648 param_e02))
(define-fun .def_1986 () Bool (and .def_1543 .def_1985))
(define-fun .def_1987 () Bool (and .def_1731 .def_1986))
(define-fun .def_1988 () Bool (and .def_1550 .def_1987))
(define-fun .def_1989 () Bool (and .def_1557 .def_1988))
(define-fun .def_1990 () Bool (and .def_1775 .def_1989))
(define-fun .def_1991 () Bool (and .def_1579 .def_1990))
(define-fun .def_1992 () Bool (and .def_1591 .def_1991))
(define-fun .def_1993 () Bool (and .def_1880 .def_1992))
(define-fun .def_1994 () Bool (and .def_1536 .def_1993))
(define-fun .def_1995 () Bool (and .def_1515 .def_1994))
(define-fun .def_2009 () Bool (or .def_1995 .def_2008))
(define-fun .def_1975 () Bool (and param_e03 .def_1920))
(define-fun .def_1976 () Bool (and .def_1731 .def_1975))
(define-fun .def_1977 () Bool (and .def_1550 .def_1976))
(define-fun .def_1978 () Bool (and .def_1557 .def_1977))
(define-fun .def_1979 () Bool (and .def_1775 .def_1978))
(define-fun .def_1980 () Bool (and .def_1579 .def_1979))
(define-fun .def_1981 () Bool (and .def_1591 .def_1980))
(define-fun .def_1982 () Bool (and .def_1880 .def_1981))
(define-fun .def_1983 () Bool (and .def_1536 .def_1982))
(define-fun .def_1984 () Bool (and .def_1515 .def_1983))
(define-fun .def_2010 () Bool (or .def_1984 .def_2009))
(define-fun .def_1966 () Bool (and param_e04 .def_1921))
(define-fun .def_1967 () Bool (and .def_1550 .def_1966))
(define-fun .def_1968 () Bool (and .def_1557 .def_1967))
(define-fun .def_1969 () Bool (and .def_1775 .def_1968))
(define-fun .def_1970 () Bool (and .def_1579 .def_1969))
(define-fun .def_1971 () Bool (and .def_1591 .def_1970))
(define-fun .def_1972 () Bool (and .def_1880 .def_1971))
(define-fun .def_1973 () Bool (and .def_1536 .def_1972))
(define-fun .def_1974 () Bool (and .def_1515 .def_1973))
(define-fun .def_2011 () Bool (or .def_1974 .def_2010))
(define-fun .def_1958 () Bool (and param_e05 .def_1922))
(define-fun .def_1959 () Bool (and .def_1557 .def_1958))
(define-fun .def_1960 () Bool (and .def_1775 .def_1959))
(define-fun .def_1961 () Bool (and .def_1579 .def_1960))
(define-fun .def_1962 () Bool (and .def_1591 .def_1961))
(define-fun .def_1963 () Bool (and .def_1880 .def_1962))
(define-fun .def_1964 () Bool (and .def_1536 .def_1963))
(define-fun .def_1965 () Bool (and .def_1515 .def_1964))
(define-fun .def_2012 () Bool (or .def_1965 .def_2011))
(define-fun .def_1951 () Bool (and param_e06 .def_1923))
(define-fun .def_1952 () Bool (and .def_1775 .def_1951))
(define-fun .def_1953 () Bool (and .def_1579 .def_1952))
(define-fun .def_1954 () Bool (and .def_1591 .def_1953))
(define-fun .def_1955 () Bool (and .def_1880 .def_1954))
(define-fun .def_1956 () Bool (and .def_1536 .def_1955))
(define-fun .def_1957 () Bool (and .def_1515 .def_1956))
(define-fun .def_2013 () Bool (or .def_1957 .def_2012))
(define-fun .def_1945 () Bool (and param_e07 .def_1924))
(define-fun .def_1946 () Bool (and .def_1579 .def_1945))
(define-fun .def_1947 () Bool (and .def_1591 .def_1946))
(define-fun .def_1948 () Bool (and .def_1880 .def_1947))
(define-fun .def_1949 () Bool (and .def_1536 .def_1948))
(define-fun .def_1950 () Bool (and .def_1515 .def_1949))
(define-fun .def_2014 () Bool (or .def_1950 .def_2013))
(define-fun .def_1940 () Bool (and param_e08 .def_1925))
(define-fun .def_1941 () Bool (and .def_1591 .def_1940))
(define-fun .def_1942 () Bool (and .def_1880 .def_1941))
(define-fun .def_1943 () Bool (and .def_1536 .def_1942))
(define-fun .def_1944 () Bool (and .def_1515 .def_1943))
(define-fun .def_2015 () Bool (or .def_1944 .def_2014))
(define-fun .def_1936 () Bool (and param_e09 .def_1926))
(define-fun .def_1937 () Bool (and .def_1880 .def_1936))
(define-fun .def_1938 () Bool (and .def_1536 .def_1937))
(define-fun .def_1939 () Bool (and .def_1515 .def_1938))
(define-fun .def_2016 () Bool (or .def_1939 .def_2015))
(define-fun .def_1933 () Bool (and param_e10 .def_1927))
(define-fun .def_1934 () Bool (and .def_1536 .def_1933))
(define-fun .def_1935 () Bool (and .def_1515 .def_1934))
(define-fun .def_2017 () Bool (or .def_1935 .def_2016))
(define-fun .def_1931 () Bool (and param_e11 .def_1928))
(define-fun .def_1932 () Bool (and .def_1515 .def_1931))
(define-fun .def_2018 () Bool (or .def_1932 .def_2017))
(define-fun .def_1930 () Bool (and param_e12 .def_1929))
(define-fun .def_2019 () Bool (or .def_1930 .def_2018))
(define-fun .def_2020 () Bool (= call_excludes12.excludes .def_2019))
(define-fun .def_1918 () Bool (= call_peterson.flby14 call_peterson.x13))
(define-fun .def_1916 () Bool (= call_peterson.flby13 call_peterson.x12))
(define-fun .def_1914 () Bool (= call_peterson.flby12 call_peterson.x11))
(define-fun .def_1912 () Bool (= call_peterson.flby11 call_peterson.x10))
(define-fun .def_1910 () Bool (= call_peterson.flby10 call_peterson.x9))
(define-fun .def_1908 () Bool (= call_peterson.flby9 call_peterson.x8))
(define-fun .def_1906 () Bool (= call_peterson.flby8 call_peterson.x7))
(define-fun .def_1904 () Bool (= call_peterson.flby7 call_peterson.x6))
(define-fun .def_1902 () Bool (= call_peterson.flby6 call_peterson.x5))
(define-fun .def_1900 () Bool (= call_peterson.flby5 call_peterson.x4))
(define-fun .def_1898 () Bool (= call_peterson.flby4 call_peterson.x3))
(define-fun .def_1896 () Bool (= call_peterson.flby3 call_peterson.x2))
(define-fun .def_1894 () Bool (= call_peterson.flby2 call_peterson.x1))
(define-fun .def_1892 () Bool (= call_peterson.flby call_peterson.x0))
(define-fun .def_1888 () Bool (= call_peterson.ite71 call_peterson.ite72))
(define-fun .def_1889 () Bool (or param_e10 .def_1888))
(define-fun .def_1885 () Bool (= call_peterson.ite67 call_peterson.ite72))
(define-fun .def_1886 () Bool (or .def_1880 .def_1885))
(define-fun .def_1879 () Bool (= call_peterson.ite64 call_peterson.ite61))
(define-fun .def_1881 () Bool (or .def_1879 .def_1880))
(define-fun .def_1875 () Bool (= call_peterson.ite63 call_peterson.ite64))
(define-fun .def_1877 () Bool (or .def_1875 param_e10))
(define-fun .def_1882 () Bool (and .def_1877 .def_1881))
(define-fun .def_1887 () Bool (and .def_1882 .def_1886))
(define-fun .def_1890 () Bool (and .def_1887 .def_1889))
(define-fun .def_1871 () Bool (= call_peterson.ite65 call_peterson.ite60))
(define-fun .def_1872 () Bool (or .def_1591 .def_1871))
(define-fun .def_1868 () Bool (= call_peterson.ite65 call_peterson.ite64))
(define-fun .def_1869 () Bool (or param_e09 .def_1868))
(define-fun .def_1873 () Bool (and .def_1869 .def_1872))
(define-fun .def_1865 () Bool (= env call_Sofar.Sofar))
(define-fun .def_1862 () Bool (= x13 call_peterson.x13))
(define-fun .def_1856 () Bool (= call_peterson.ite66 call_peterson.ite65))
(define-fun .def_1857 () Bool (or param_e08 .def_1856))
(define-fun .def_1852 () Bool (= call_peterson.ite59 call_peterson.ite66))
(define-fun .def_1853 () Bool (or .def_1579 .def_1852))
(define-fun .def_1847 () Bool (= call_peterson.ite57 call_peterson.ite54))
(define-fun .def_1848 () Bool (or .def_1579 .def_1847))
(define-fun .def_1844 () Bool (= call_peterson.ite56 call_peterson.ite57))
(define-fun .def_1845 () Bool (or param_e08 .def_1844))
(define-fun .def_1849 () Bool (and .def_1845 .def_1848))
(define-fun .def_1854 () Bool (and .def_1849 .def_1853))
(define-fun .def_1858 () Bool (and .def_1854 .def_1857))
(define-fun .def_1842 () Bool (= x12 call_peterson.x12))
(define-fun .def_1838 () Bool (= x11 call_peterson.x11))
(define-fun .def_1834 () Bool (= x10 call_peterson.x10))
(define-fun .def_1830 () Bool (= x9 call_peterson.x9))
(define-fun .def_1826 () Bool (= x8 call_peterson.x8))
(define-fun .def_1822 () Bool (= x7 call_peterson.x7))
(define-fun .def_1818 () Bool (= x6 call_peterson.x6))
(define-fun .def_1814 () Bool (= x5 call_peterson.x5))
(define-fun .def_1810 () Bool (= x4 call_peterson.x4))
(define-fun .def_1806 () Bool (= x3 call_peterson.x3))
(define-fun .def_1800 () Bool (= call_peterson.ite58 call_peterson.ite57))
(define-fun .def_1801 () Bool (or param_e07 .def_1800))
(define-fun .def_1796 () Bool (= call_peterson.ite53 call_peterson.ite58))
(define-fun .def_1797 () Bool (or .def_1775 .def_1796))
(define-fun .def_1791 () Bool (= call_peterson.ite51 call_peterson.ite52))
(define-fun .def_1792 () Bool (or param_e07 .def_1791))
(define-fun .def_1788 () Bool (= call_peterson.ite49 call_peterson.ite52))
(define-fun .def_1789 () Bool (or .def_1775 .def_1788))
(define-fun .def_1783 () Bool (= call_peterson.ite47 call_peterson.ite48))
(define-fun .def_1784 () Bool (or param_e07 .def_1783))
(define-fun .def_1780 () Bool (= call_peterson.ite45 call_peterson.ite48))
(define-fun .def_1781 () Bool (or .def_1775 .def_1780))
(define-fun .def_1774 () Bool (= call_peterson.ite44 call_peterson.ite41))
(define-fun .def_1776 () Bool (or .def_1774 .def_1775))
(define-fun .def_1770 () Bool (= call_peterson.ite43 call_peterson.ite44))
(define-fun .def_1772 () Bool (or .def_1770 param_e07))
(define-fun .def_1777 () Bool (and .def_1772 .def_1776))
(define-fun .def_1782 () Bool (and .def_1777 .def_1781))
(define-fun .def_1785 () Bool (and .def_1782 .def_1784))
(define-fun .def_1790 () Bool (and .def_1785 .def_1789))
(define-fun .def_1793 () Bool (and .def_1790 .def_1792))
(define-fun .def_1798 () Bool (and .def_1793 .def_1797))
(define-fun .def_1802 () Bool (and .def_1798 .def_1801))
(define-fun .def_1767 () Bool (= x2 call_peterson.x2))
(define-fun .def_1763 () Bool (= x1 call_peterson.x1))
(define-fun .def_1759 () Bool (= x0 call_peterson.x0))
(define-fun .def_1753 () Bool (not env))
(define-fun .def_1754 () Bool (or flby .def_1753))
(define-fun .def_1755 () Bool (= _OK_ .def_1754))
(define-fun .def_1747 () Bool (= call_peterson.ite23 call_peterson.ite20))
(define-fun .def_1748 () Bool (or .def_1550 .def_1747))
(define-fun .def_1744 () Bool (= call_peterson.ite22 call_peterson.ite23))
(define-fun .def_1745 () Bool (or param_e05 .def_1744))
(define-fun .def_1749 () Bool (and .def_1745 .def_1748))
(define-fun .def_1740 () Bool (= call_peterson.ite24 call_peterson.ite23))
(define-fun .def_1741 () Bool (or param_e04 .def_1740))
(define-fun .def_1736 () Bool (= call_peterson.ite19 call_peterson.ite24))
(define-fun .def_1737 () Bool (or .def_1731 .def_1736))
(define-fun .def_1730 () Bool (= call_peterson.ite16 call_peterson.ite13))
(define-fun .def_1732 () Bool (or .def_1730 .def_1731))
(define-fun .def_1726 () Bool (= call_peterson.ite15 call_peterson.ite16))
(define-fun .def_1728 () Bool (or .def_1726 param_e04))
(define-fun .def_1733 () Bool (and .def_1728 .def_1732))
(define-fun .def_1738 () Bool (and .def_1733 .def_1737))
(define-fun .def_1742 () Bool (and .def_1738 .def_1741))
(define-fun .def_1722 () Bool (= call_peterson.ite17 call_peterson.ite12))
(define-fun .def_1723 () Bool (or .def_1543 .def_1722))
(define-fun .def_1719 () Bool (= call_peterson.ite17 call_peterson.ite16))
(define-fun .def_1720 () Bool (or param_e03 .def_1719))
(define-fun .def_1724 () Bool (and .def_1720 .def_1723))
(define-fun .def_1714 () Bool (= call_peterson.ite35 call_peterson.ite36))
(define-fun .def_1715 () Bool (or param_e02 .def_1714))
(define-fun .def_1711 () Bool (= call_peterson.ite33 call_peterson.ite36))
(define-fun .def_1712 () Bool (or .def_1690 .def_1711))
(define-fun .def_1706 () Bool (= call_peterson.ite18 call_peterson.ite17))
(define-fun .def_1707 () Bool (or param_e02 .def_1706))
(define-fun .def_1702 () Bool (= call_peterson.ite11 call_peterson.ite18))
(define-fun .def_1703 () Bool (or .def_1690 .def_1702))
(define-fun .def_1697 () Bool (= call_peterson.ite8 call_peterson.ite9))
(define-fun .def_1698 () Bool (or param_e02 .def_1697))
(define-fun .def_1694 () Bool (= call_peterson.ite9 call_peterson.ite6))
(define-fun .def_1695 () Bool (or .def_1690 .def_1694))
(define-fun .def_1689 () Bool (= call_peterson.ite40 call_peterson.ite37))
(define-fun .def_1691 () Bool (or .def_1689 .def_1690))
(define-fun .def_1685 () Bool (= call_peterson.ite39 call_peterson.ite40))
(define-fun .def_1687 () Bool (or .def_1685 param_e02))
(define-fun .def_1692 () Bool (and .def_1687 .def_1691))
(define-fun .def_1696 () Bool (and .def_1692 .def_1695))
(define-fun .def_1699 () Bool (and .def_1696 .def_1698))
(define-fun .def_1704 () Bool (and .def_1699 .def_1703))
(define-fun .def_1708 () Bool (and .def_1704 .def_1707))
(define-fun .def_1713 () Bool (and .def_1708 .def_1712))
(define-fun .def_1716 () Bool (and .def_1713 .def_1715))
(define-fun .def_1680 () Bool (= call_peterson.ite71 call_peterson.ite68))
(define-fun .def_1681 () Bool (or .def_1536 .def_1680))
(define-fun .def_1677 () Bool (= call_peterson.ite70 call_peterson.ite71))
(define-fun .def_1678 () Bool (or param_e11 .def_1677))
(define-fun .def_1682 () Bool (and .def_1678 .def_1681))
(define-fun .def_1673 () Bool (= call_peterson.ite31 call_peterson.ite32))
(define-fun .def_1674 () Bool (or param_e01 .def_1673))
(define-fun .def_1670 () Bool (= call_peterson.ite29 call_peterson.ite32))
(define-fun .def_1671 () Bool (or .def_1648 .def_1670))
(define-fun .def_1665 () Bool (= call_peterson.ite27 call_peterson.ite28))
(define-fun .def_1666 () Bool (or param_e01 .def_1665))
(define-fun .def_1662 () Bool (= call_peterson.ite25 call_peterson.ite28))
(define-fun .def_1663 () Bool (or .def_1648 .def_1662))
(define-fun .def_1657 () Bool (= call_peterson.ite10 call_peterson.ite9))
(define-fun .def_1658 () Bool (or param_e01 .def_1657))
(define-fun .def_1653 () Bool (= call_peterson.ite5 call_peterson.ite10))
(define-fun .def_1654 () Bool (or .def_1648 .def_1653))
(define-fun .def_1647 () Bool (= call_peterson.ite4 call_peterson.ite))
(define-fun .def_1649 () Bool (or .def_1647 .def_1648))
(define-fun .def_1643 () Bool (= call_peterson.ite3 call_peterson.ite4))
(define-fun .def_1645 () Bool (or .def_1643 param_e01))
(define-fun .def_1650 () Bool (and .def_1645 .def_1649))
(define-fun .def_1655 () Bool (and .def_1650 .def_1654))
(define-fun .def_1659 () Bool (and .def_1655 .def_1658))
(define-fun .def_1664 () Bool (and .def_1659 .def_1663))
(define-fun .def_1667 () Bool (and .def_1664 .def_1666))
(define-fun .def_1672 () Bool (and .def_1667 .def_1671))
(define-fun .def_1675 () Bool (and .def_1672 .def_1674))
(define-fun .def_1683 () Bool (and .def_1675 .def_1682))
(define-fun .def_1717 () Bool (and .def_1683 .def_1716))
(define-fun .def_1725 () Bool (and .def_1717 .def_1724))
(define-fun .def_1743 () Bool (and .def_1725 .def_1742))
(define-fun .def_1750 () Bool (and .def_1743 .def_1749))
(define-fun .def_1756 () Bool (and .def_1750 .def_1755))
(define-fun .def_1760 () Bool (and .def_1756 .def_1759))
(define-fun .def_1764 () Bool (and .def_1760 .def_1763))
(define-fun .def_1768 () Bool (and .def_1764 .def_1767))
(define-fun .def_1803 () Bool (and .def_1768 .def_1802))
(define-fun .def_1807 () Bool (and .def_1803 .def_1806))
(define-fun .def_1811 () Bool (and .def_1807 .def_1810))
(define-fun .def_1815 () Bool (and .def_1811 .def_1814))
(define-fun .def_1819 () Bool (and .def_1815 .def_1818))
(define-fun .def_1823 () Bool (and .def_1819 .def_1822))
(define-fun .def_1827 () Bool (and .def_1823 .def_1826))
(define-fun .def_1831 () Bool (and .def_1827 .def_1830))
(define-fun .def_1835 () Bool (and .def_1831 .def_1834))
(define-fun .def_1839 () Bool (and .def_1835 .def_1838))
(define-fun .def_1843 () Bool (and .def_1839 .def_1842))
(define-fun .def_1859 () Bool (and .def_1843 .def_1858))
(define-fun .def_1863 () Bool (and .def_1859 .def_1862))
(define-fun .def_1866 () Bool (and .def_1863 .def_1865))
(define-fun .def_1874 () Bool (and .def_1866 .def_1873))
(define-fun .def_1891 () Bool (and .def_1874 .def_1890))
(define-fun .def_1893 () Bool (and .def_1891 .def_1892))
(define-fun .def_1895 () Bool (and .def_1893 .def_1894))
(define-fun .def_1897 () Bool (and .def_1895 .def_1896))
(define-fun .def_1899 () Bool (and .def_1897 .def_1898))
(define-fun .def_1901 () Bool (and .def_1899 .def_1900))
(define-fun .def_1903 () Bool (and .def_1901 .def_1902))
(define-fun .def_1905 () Bool (and .def_1903 .def_1904))
(define-fun .def_1907 () Bool (and .def_1905 .def_1906))
(define-fun .def_1909 () Bool (and .def_1907 .def_1908))
(define-fun .def_1911 () Bool (and .def_1909 .def_1910))
(define-fun .def_1913 () Bool (and .def_1911 .def_1912))
(define-fun .def_1915 () Bool (and .def_1913 .def_1914))
(define-fun .def_1917 () Bool (and .def_1915 .def_1916))
(define-fun .def_1919 () Bool (and .def_1917 .def_1918))
(define-fun .def_2021 () Bool (and .def_1919 .def_2020))
(define-fun .def_2023 () Bool (and .def_2021 .def_2022))
(define-fun .def_1640 () Bool (= call_excludes12.excludes call_Sofar.flby))
(define-fun .def_1636 () Bool (= call_peterson.flby6 0))
(define-fun .def_1633 () Bool (= call_peterson.flby5 1))
(define-fun .def_1630 () Bool (= call_peterson.flby4 0))
(define-fun .def_1627 () Bool (= call_peterson.flby3 0))
(define-fun .def_1624 () Bool (= call_peterson.flby2 0))
(define-fun .def_1621 () Bool (= call_peterson.flby 1))
(define-fun .def_1618 () Bool (= call_peterson.flby14 0))
(define-fun .def_1615 () Bool (= call_peterson.flby13 0))
(define-fun .def_1612 () Bool (= call_peterson.flby12 0))
(define-fun .def_1609 () Bool (= call_peterson.flby11 1))
(define-fun .def_1606 () Bool (= call_peterson.flby10 1))
(define-fun .def_1603 () Bool (= call_peterson.flby9 0))
(define-fun .def_1600 () Bool (= call_peterson.flby8 1))
(define-fun .def_1597 () Bool (= call_peterson.flby7 0))
(define-fun .def_1589 () Bool (= call_peterson.ite55 call_peterson.ite56))
(define-fun .def_1592 () Bool (or .def_1589 .def_1591))
(define-fun .def_1583 () Bool (= call_peterson.ite38 call_peterson.ite39))
(define-fun .def_1584 () Bool (or .def_1579 .def_1583))
(define-fun .def_1577 () Bool (= call_peterson.ite34 call_peterson.ite35))
(define-fun .def_1580 () Bool (or .def_1577 .def_1579))
(define-fun .def_1585 () Bool (and .def_1580 .def_1584))
(define-fun .def_1571 () Bool (= call_peterson.ite30 call_peterson.ite31))
(define-fun .def_1572 () Bool (or .def_1557 .def_1571))
(define-fun .def_1566 () Bool (= call_peterson.ite26 call_peterson.ite27))
(define-fun .def_1567 () Bool (or .def_1557 .def_1566))
(define-fun .def_1561 () Bool (= call_peterson.ite2 call_peterson.ite3))
(define-fun .def_1562 () Bool (or .def_1557 .def_1561))
(define-fun .def_1555 () Bool (= call_peterson.ite21 call_peterson.ite22))
(define-fun .def_1558 () Bool (or .def_1555 .def_1557))
(define-fun .def_1563 () Bool (and .def_1558 .def_1562))
(define-fun .def_1568 () Bool (and .def_1563 .def_1567))
(define-fun .def_1573 () Bool (and .def_1568 .def_1572))
(define-fun .def_1548 () Bool (= call_peterson.ite14 call_peterson.ite15))
(define-fun .def_1551 () Bool (or .def_1548 .def_1550))
(define-fun .def_1541 () Bool (= call_peterson.ite7 call_peterson.ite8))
(define-fun .def_1544 () Bool (or .def_1541 .def_1543))
(define-fun .def_1534 () Bool (= call_peterson.ite62 call_peterson.ite63))
(define-fun .def_1537 () Bool (or .def_1534 .def_1536))
(define-fun .def_1529 () Bool (= call_peterson.ite69 call_peterson.ite70))
(define-fun .def_1530 () Bool (or .def_1515 .def_1529))
(define-fun .def_1524 () Bool (= call_peterson.ite50 call_peterson.ite51))
(define-fun .def_1525 () Bool (or .def_1515 .def_1524))
(define-fun .def_1519 () Bool (= call_peterson.ite42 call_peterson.ite43))
(define-fun .def_1520 () Bool (or .def_1515 .def_1519))
(define-fun .def_1513 () Bool (= call_peterson.ite46 call_peterson.ite47))
(define-fun .def_1516 () Bool (or .def_1513 .def_1515))
(define-fun .def_1521 () Bool (and .def_1516 .def_1520))
(define-fun .def_1526 () Bool (and .def_1521 .def_1525))
(define-fun .def_1531 () Bool (and .def_1526 .def_1530))
(define-fun .def_1538 () Bool (and .def_1531 .def_1537))
(define-fun .def_1545 () Bool (and .def_1538 .def_1544))
(define-fun .def_1552 () Bool (and .def_1545 .def_1551))
(define-fun .def_1574 () Bool (and .def_1552 .def_1573))
(define-fun .def_1586 () Bool (and .def_1574 .def_1585))
(define-fun .def_1593 () Bool (and .def_1586 .def_1592))
(define-fun .def_1595 () Bool (and .def_1593 flby))
(define-fun .def_1598 () Bool (and .def_1595 .def_1597))
(define-fun .def_1601 () Bool (and .def_1598 .def_1600))
(define-fun .def_1604 () Bool (and .def_1601 .def_1603))
(define-fun .def_1607 () Bool (and .def_1604 .def_1606))
(define-fun .def_1610 () Bool (and .def_1607 .def_1609))
(define-fun .def_1613 () Bool (and .def_1610 .def_1612))
(define-fun .def_1616 () Bool (and .def_1613 .def_1615))
(define-fun .def_1619 () Bool (and .def_1616 .def_1618))
(define-fun .def_1622 () Bool (and .def_1619 .def_1621))
(define-fun .def_1625 () Bool (and .def_1622 .def_1624))
(define-fun .def_1628 () Bool (and .def_1625 .def_1627))
(define-fun .def_1631 () Bool (and .def_1628 .def_1630))
(define-fun .def_1634 () Bool (and .def_1631 .def_1633))
(define-fun .def_1637 () Bool (and .def_1634 .def_1636))
(define-fun .def_1641 () Bool (and .def_1637 .def_1640))
(define-fun .def_2024 () Bool (and .def_1641 .def_2023))
(assert .def_2024)
